certificates/rado_a10_c186_N25.cnf
c Rad2 upper bound instance: x1 + 10*x2 - x3 = 186, interval [1,25]
p cnf 25 122
1 5 19 0
-1 -5 -19 0
1 15 20 0
-1 -15 -20 0
1 21 25 0
-1 -21 -25 0
2 6 19 0
-2 -6 -19 0
2 16 20 0
-2 -16 -20 0
3 7 19 0
-3 -7 -19 0
3 17 20 0
-3 -17 -20 0
4 8 19 0
-4 -8 -19 0
4 18 20 0
-4 -18 -20 0
5 9 19 0
-5 -9 -19 0
5 19 20 0
-5 -19 -20 0
6 10 19 0
-6 -10 -19 0
6 20 0
-6 -20 0
1 7 18 0
-1 -7 -18 0
7 11 19 0
-7 -11 -19 0
7 20 21 0
-7 -20 -21 0
2 8 18 0
-2 -8 -18 0
8 12 19 0
-8 -12 -19 0
8 20 22 0
-8 -20 -22 0
3 9 18 0
-3 -9 -18 0
9 13 19 0
-9 -13 -19 0
9 20 23 0
-9 -20 -23 0
4 10 18 0
-4 -10 -18 0
10 14 19 0
-10 -14 -19 0
10 20 24 0
-10 -20 -24 0
5 11 18 0
-5 -11 -18 0
11 15 19 0
-11 -15 -19 0
11 20 25 0
-11 -20 -25 0
6 12 18 0
-6 -12 -18 0
12 16 19 0
-12 -16 -19 0
7 13 18 0
-7 -13 -18 0
13 17 19 0
-13 -17 -19 0
8 14 18 0
-8 -14 -18 0
14 18 19 0
-14 -18 -19 0
9 15 18 0
-9 -15 -18 0
15 19 0
-15 -19 0
10 16 18 0
-10 -16 -18 0
16 19 20 0
-16 -19 -20 0
1 17 0
-1 -17 0
11 17 18 0
-11 -17 -18 0
17 19 21 0
-17 -19 -21 0
2 17 18 0
-2 -17 -18 0
12 18 0
-12 -18 0
18 19 22 0
-18 -19 -22 0
3 17 19 0
-3 -17 -19 0
13 18 19 0
-13 -18 -19 0
19 23 0
-19 -23 0
4 17 20 0
-4 -17 -20 0
14 18 20 0
-14 -18 -20 0
19 20 24 0
-19 -20 -24 0
5 17 21 0
-5 -17 -21 0
15 18 21 0
-15 -18 -21 0
19 21 25 0
-19 -21 -25 0
6 17 22 0
-6 -17 -22 0
16 18 22 0
-16 -18 -22 0
7 17 23 0
-7 -17 -23 0
17 18 23 0
-17 -18 -23 0
8 17 24 0
-8 -17 -24 0
18 24 0
-18 -24 0
9 17 25 0
-9 -17 -25 0
18 19 25 0
-18 -19 -25 0
