certificates/rado_a10_c186_N25.drat
1 -23 18 0
-23 18 -25 0
18 -25 0
d -23 18 -25 0
-18 -25 0
d -18 -19 -25 0
-25 0
19 0
-15 0
-23 0
17 0
-1 0
-21 0
-13 0
-3 0
0
